NAME : pairopt.-190470.tour
COMMENT : Length = -190470
COMMENT : Found by LKH-3 [Keld Helsgaun] Wed Mar 29 10:04:18 2023
TYPE : TOUR
DIMENSION : 29
TOUR_SECTION
1
3
15
21
28
19
11
23
25
26
27
8
7
13
9
24
6
5
4
29
2
16
17
12
10
18
14
20
22
-1
EOF
